k = 24;
b = 12;
AtomicConstraints =  [|
3, 1|
	3, 2|
	4, 1|
	4, 2|
	5, 1|
	5, 2|
	5, 3|
	5, 4|
	6, 1|
	6, 2|
	6, 3|
	6, 4|
	7, 1|
	7, 2|
	7, 3|
	7, 4|
	7, 5|
	7, 6|
	8, 1|
	8, 2|
	8, 3|
	8, 4|
	8, 5|
	8, 6|
	9, 1|
	9, 2|
	9, 3|
	9, 4|
	9, 5|
	9, 6|
	9, 7|
	10, 1|
	10, 2|
	10, 3|
	10, 4|
	10, 5|
	10, 6|
	10, 7|
	10, 8|
	11, 1|
	11, 2|
	11, 3|
	11, 4|
	11, 5|
	11, 6|
	11, 7|
	11, 8|
	12, 1|
	12, 2|
	12, 3|
	12, 4|
	12, 5|
	12, 6|
	12, 7|
	12, 8|
	12, 9|
	12, 10|
	12, 11|
	24, 17|
	24, 15|
	24, 16|
	20, 13|
	20, 14|
	19, 13|
	19, 14|
	21, 14|
	21, 15|
	21, 16|
	22, 21|
	22, 13|
	22, 14|
	22, 15|
	22, 16|
	23, 21|
	23, 13|
	23, 14|
	23, 15|
	23, 16|];
DisjunctiveConstraints =  [|10, 11, 10, 9|];
SoftAtomicConstraints =  [|
2, 1|
4, 3|
6, 5|
8, 7|
10, 9|
11, 10|
14, 13|
15, 14|
16, 15|
17, 16|
18, 17|
20, 19|
22, 20|
24, 21|
23, 22|];
DirectSuccessors =  [];
